(set-logic QF_LRA)
(declare-fun T1 () Real )
(declare-fun T2 () Real )
(declare-fun T3 () Real )
(declare-fun T4 () Real )
(declare-fun T5 () Real )
(declare-fun T6 () Real )
(declare-fun Z () Real )
(assert ( and 
(or ( <= ( + T1 18 ) T2 ) ( <= ( + T2 21 ) T1 ) )
(or ( <= ( + T1 72 )  ( + T2 21 ) ) ( <= ( + T2 94 )( + T1 18 ) ) )
(or ( <= ( + T1 90 )  ( + T2 94 ) ) ( <= ( + T2 140 )( + T1 72 ) ) )
(or ( <= ( + T1 103 )  ( + T2 140 ) ) ( <= ( + T2 206 )( + T1 90 ) ) )
(or ( <= ( + T1 137 )  ( + T2 206 ) ) ( <= ( + T2 296 )( + T1 103 ) ) )
(or ( <= ( + T1 177 )  ( + T2 296 ) ) ( <= ( + T2 379 )( + T1 137 ) ) )
(or ( <= ( + T1 190 )  ( + T2 379 ) ) ( <= ( + T2 395 )( + T1 177 ) ) )
(or ( <= ( + T1 237 )  ( + T2 395 ) ) ( <= ( + T2 439 )( + T1 190 ) ) )
(or ( <= ( + T1 18 ) T3 ) ( <= ( + T3 10 ) T1 ) )
(or ( <= ( + T1 72 )  ( + T3 10 ) ) ( <= ( + T3 21 )( + T1 18 ) ) )
(or ( <= ( + T1 90 )  ( + T3 21 ) ) ( <= ( + T3 85 )( + T1 72 ) ) )
(or ( <= ( + T1 103 )  ( + T3 85 ) ) ( <= ( + T3 183 )( + T1 90 ) ) )
(or ( <= ( + T1 137 )  ( + T3 183 ) ) ( <= ( + T3 206 )( + T1 103 ) ) )
(or ( <= ( + T1 177 )  ( + T3 206 ) ) ( <= ( + T3 304 )( + T1 137 ) ) )
(or ( <= ( + T1 190 )  ( + T3 304 ) ) ( <= ( + T3 355 )( + T1 177 ) ) )
(or ( <= ( + T1 237 )  ( + T3 355 ) ) ( <= ( + T3 374 )( + T1 190 ) ) )
(or ( <= ( + T1 18 ) T4 ) ( <= ( + T4 5 ) T1 ) )
(or ( <= ( + T1 72 )  ( + T4 5 ) ) ( <= ( + T4 40 )( + T1 18 ) ) )
(or ( <= ( + T1 90 )  ( + T4 40 ) ) ( <= ( + T4 124 )( + T1 72 ) ) )
(or ( <= ( + T1 103 )  ( + T4 124 ) ) ( <= ( + T4 195 )( + T1 90 ) ) )
(or ( <= ( + T1 137 )  ( + T4 195 ) ) ( <= ( + T4 237 )( + T1 103 ) ) )
(or ( <= ( + T1 177 )  ( + T4 237 ) ) ( <= ( + T4 325 )( + T1 137 ) ) )
(or ( <= ( + T1 190 )  ( + T4 325 ) ) ( <= ( + T4 411 )( + T1 177 ) ) )
(or ( <= ( + T1 237 )  ( + T4 411 ) ) ( <= ( + T4 423 )( + T1 190 ) ) )
(or ( <= ( + T1 18 ) T5 ) ( <= ( + T5 93 ) T1 ) )
(or ( <= ( + T1 72 )  ( + T5 93 ) ) ( <= ( + T5 148 )( + T1 18 ) ) )
(or ( <= ( + T1 90 )  ( + T5 148 ) ) ( <= ( + T5 224 )( + T1 72 ) ) )
(or ( <= ( + T1 103 )  ( + T5 224 ) ) ( <= ( + T5 250 )( + T1 90 ) ) )
(or ( <= ( + T1 137 )  ( + T5 250 ) ) ( <= ( + T5 296 )( + T1 103 ) ) )
(or ( <= ( + T1 177 )  ( + T5 296 ) ) ( <= ( + T5 385 )( + T1 137 ) ) )
(or ( <= ( + T1 190 )  ( + T5 385 ) ) ( <= ( + T5 409 )( + T1 177 ) ) )
(or ( <= ( + T1 237 )  ( + T5 409 ) ) ( <= ( + T5 475 )( + T1 190 ) ) )
(or ( <= ( + T1 18 ) T6 ) ( <= ( + T6 61 ) T1 ) )
(or ( <= ( + T1 72 )  ( + T6 61 ) ) ( <= ( + T6 130 )( + T1 18 ) ) )
(or ( <= ( + T1 90 )  ( + T6 130 ) ) ( <= ( + T6 214 )( + T1 72 ) ) )
(or ( <= ( + T1 103 )  ( + T6 214 ) ) ( <= ( + T6 216 )( + T1 90 ) ) )
(or ( <= ( + T1 137 )  ( + T6 216 ) ) ( <= ( + T6 220 )( + T1 103 ) ) )
(or ( <= ( + T1 177 )  ( + T6 220 ) ) ( <= ( + T6 319 )( + T1 137 ) ) )
(or ( <= ( + T1 190 )  ( + T6 319 ) ) ( <= ( + T6 416 )( + T1 177 ) ) )
(or ( <= ( + T1 237 )  ( + T6 416 ) ) ( <= ( + T6 481 )( + T1 190 ) ) )
(or ( <= ( + T2 21 ) T3 ) ( <= ( + T3 10 ) T2 ) )
(or ( <= ( + T2 94 )  ( + T3 10 ) ) ( <= ( + T3 21 )( + T2 21 ) ) )
(or ( <= ( + T2 140 )  ( + T3 21 ) ) ( <= ( + T3 85 )( + T2 94 ) ) )
(or ( <= ( + T2 206 )  ( + T3 85 ) ) ( <= ( + T3 183 )( + T2 140 ) ) )
(or ( <= ( + T2 296 )  ( + T3 183 ) ) ( <= ( + T3 206 )( + T2 206 ) ) )
(or ( <= ( + T2 379 )  ( + T3 206 ) ) ( <= ( + T3 304 )( + T2 296 ) ) )
(or ( <= ( + T2 395 )  ( + T3 304 ) ) ( <= ( + T3 355 )( + T2 379 ) ) )
(or ( <= ( + T2 439 )  ( + T3 355 ) ) ( <= ( + T3 374 )( + T2 395 ) ) )
(or ( <= ( + T2 21 ) T4 ) ( <= ( + T4 5 ) T2 ) )
(or ( <= ( + T2 94 )  ( + T4 5 ) ) ( <= ( + T4 40 )( + T2 21 ) ) )
(or ( <= ( + T2 140 )  ( + T4 40 ) ) ( <= ( + T4 124 )( + T2 94 ) ) )
(or ( <= ( + T2 206 )  ( + T4 124 ) ) ( <= ( + T4 195 )( + T2 140 ) ) )
(or ( <= ( + T2 296 )  ( + T4 195 ) ) ( <= ( + T4 237 )( + T2 206 ) ) )
(or ( <= ( + T2 379 )  ( + T4 237 ) ) ( <= ( + T4 325 )( + T2 296 ) ) )
(or ( <= ( + T2 395 )  ( + T4 325 ) ) ( <= ( + T4 411 )( + T2 379 ) ) )
(or ( <= ( + T2 439 )  ( + T4 411 ) ) ( <= ( + T4 423 )( + T2 395 ) ) )
(or ( <= ( + T2 21 ) T5 ) ( <= ( + T5 93 ) T2 ) )
(or ( <= ( + T2 94 )  ( + T5 93 ) ) ( <= ( + T5 148 )( + T2 21 ) ) )
(or ( <= ( + T2 140 )  ( + T5 148 ) ) ( <= ( + T5 224 )( + T2 94 ) ) )
(or ( <= ( + T2 206 )  ( + T5 224 ) ) ( <= ( + T5 250 )( + T2 140 ) ) )
(or ( <= ( + T2 296 )  ( + T5 250 ) ) ( <= ( + T5 296 )( + T2 206 ) ) )
(or ( <= ( + T2 379 )  ( + T5 296 ) ) ( <= ( + T5 385 )( + T2 296 ) ) )
(or ( <= ( + T2 395 )  ( + T5 385 ) ) ( <= ( + T5 409 )( + T2 379 ) ) )
(or ( <= ( + T2 439 )  ( + T5 409 ) ) ( <= ( + T5 475 )( + T2 395 ) ) )
(or ( <= ( + T2 21 ) T6 ) ( <= ( + T6 61 ) T2 ) )
(or ( <= ( + T2 94 )  ( + T6 61 ) ) ( <= ( + T6 130 )( + T2 21 ) ) )
(or ( <= ( + T2 140 )  ( + T6 130 ) ) ( <= ( + T6 214 )( + T2 94 ) ) )
(or ( <= ( + T2 206 )  ( + T6 214 ) ) ( <= ( + T6 216 )( + T2 140 ) ) )
(or ( <= ( + T2 296 )  ( + T6 216 ) ) ( <= ( + T6 220 )( + T2 206 ) ) )
(or ( <= ( + T2 379 )  ( + T6 220 ) ) ( <= ( + T6 319 )( + T2 296 ) ) )
(or ( <= ( + T2 395 )  ( + T6 319 ) ) ( <= ( + T6 416 )( + T2 379 ) ) )
(or ( <= ( + T2 439 )  ( + T6 416 ) ) ( <= ( + T6 481 )( + T2 395 ) ) )
(or ( <= ( + T3 10 ) T4 ) ( <= ( + T4 5 ) T3 ) )
(or ( <= ( + T3 21 )  ( + T4 5 ) ) ( <= ( + T4 40 )( + T3 10 ) ) )
(or ( <= ( + T3 85 )  ( + T4 40 ) ) ( <= ( + T4 124 )( + T3 21 ) ) )
(or ( <= ( + T3 183 )  ( + T4 124 ) ) ( <= ( + T4 195 )( + T3 85 ) ) )
(or ( <= ( + T3 206 )  ( + T4 195 ) ) ( <= ( + T4 237 )( + T3 183 ) ) )
(or ( <= ( + T3 304 )  ( + T4 237 ) ) ( <= ( + T4 325 )( + T3 206 ) ) )
(or ( <= ( + T3 355 )  ( + T4 325 ) ) ( <= ( + T4 411 )( + T3 304 ) ) )
(or ( <= ( + T3 374 )  ( + T4 411 ) ) ( <= ( + T4 423 )( + T3 355 ) ) )
(or ( <= ( + T3 10 ) T5 ) ( <= ( + T5 93 ) T3 ) )
(or ( <= ( + T3 21 )  ( + T5 93 ) ) ( <= ( + T5 148 )( + T3 10 ) ) )
(or ( <= ( + T3 85 )  ( + T5 148 ) ) ( <= ( + T5 224 )( + T3 21 ) ) )
(or ( <= ( + T3 183 )  ( + T5 224 ) ) ( <= ( + T5 250 )( + T3 85 ) ) )
(or ( <= ( + T3 206 )  ( + T5 250 ) ) ( <= ( + T5 296 )( + T3 183 ) ) )
(or ( <= ( + T3 304 )  ( + T5 296 ) ) ( <= ( + T5 385 )( + T3 206 ) ) )
(or ( <= ( + T3 355 )  ( + T5 385 ) ) ( <= ( + T5 409 )( + T3 304 ) ) )
(or ( <= ( + T3 374 )  ( + T5 409 ) ) ( <= ( + T5 475 )( + T3 355 ) ) )
(or ( <= ( + T3 10 ) T6 ) ( <= ( + T6 61 ) T3 ) )
(or ( <= ( + T3 21 )  ( + T6 61 ) ) ( <= ( + T6 130 )( + T3 10 ) ) )
(or ( <= ( + T3 85 )  ( + T6 130 ) ) ( <= ( + T6 214 )( + T3 21 ) ) )
(or ( <= ( + T3 183 )  ( + T6 214 ) ) ( <= ( + T6 216 )( + T3 85 ) ) )
(or ( <= ( + T3 206 )  ( + T6 216 ) ) ( <= ( + T6 220 )( + T3 183 ) ) )
(or ( <= ( + T3 304 )  ( + T6 220 ) ) ( <= ( + T6 319 )( + T3 206 ) ) )
(or ( <= ( + T3 355 )  ( + T6 319 ) ) ( <= ( + T6 416 )( + T3 304 ) ) )
(or ( <= ( + T3 374 )  ( + T6 416 ) ) ( <= ( + T6 481 )( + T3 355 ) ) )
(or ( <= ( + T4 5 ) T5 ) ( <= ( + T5 93 ) T4 ) )
(or ( <= ( + T4 40 )  ( + T5 93 ) ) ( <= ( + T5 148 )( + T4 5 ) ) )
(or ( <= ( + T4 124 )  ( + T5 148 ) ) ( <= ( + T5 224 )( + T4 40 ) ) )
(or ( <= ( + T4 195 )  ( + T5 224 ) ) ( <= ( + T5 250 )( + T4 124 ) ) )
(or ( <= ( + T4 237 )  ( + T5 250 ) ) ( <= ( + T5 296 )( + T4 195 ) ) )
(or ( <= ( + T4 325 )  ( + T5 296 ) ) ( <= ( + T5 385 )( + T4 237 ) ) )
(or ( <= ( + T4 411 )  ( + T5 385 ) ) ( <= ( + T5 409 )( + T4 325 ) ) )
(or ( <= ( + T4 423 )  ( + T5 409 ) ) ( <= ( + T5 475 )( + T4 411 ) ) )
(or ( <= ( + T4 5 ) T6 ) ( <= ( + T6 61 ) T4 ) )
(or ( <= ( + T4 40 )  ( + T6 61 ) ) ( <= ( + T6 130 )( + T4 5 ) ) )
(or ( <= ( + T4 124 )  ( + T6 130 ) ) ( <= ( + T6 214 )( + T4 40 ) ) )
(or ( <= ( + T4 195 )  ( + T6 214 ) ) ( <= ( + T6 216 )( + T4 124 ) ) )
(or ( <= ( + T4 237 )  ( + T6 216 ) ) ( <= ( + T6 220 )( + T4 195 ) ) )
(or ( <= ( + T4 325 )  ( + T6 220 ) ) ( <= ( + T6 319 )( + T4 237 ) ) )
(or ( <= ( + T4 411 )  ( + T6 319 ) ) ( <= ( + T6 416 )( + T4 325 ) ) )
(or ( <= ( + T4 423 )  ( + T6 416 ) ) ( <= ( + T6 481 )( + T4 411 ) ) )
(or ( <= ( + T5 93 ) T6 ) ( <= ( + T6 61 ) T5 ) )
(or ( <= ( + T5 148 )  ( + T6 61 ) ) ( <= ( + T6 130 )( + T5 93 ) ) )
(or ( <= ( + T5 224 )  ( + T6 130 ) ) ( <= ( + T6 214 )( + T5 148 ) ) )
(or ( <= ( + T5 250 )  ( + T6 214 ) ) ( <= ( + T6 216 )( + T5 224 ) ) )
(or ( <= ( + T5 296 )  ( + T6 216 ) ) ( <= ( + T6 220 )( + T5 250 ) ) )
(or ( <= ( + T5 385 )  ( + T6 220 ) ) ( <= ( + T6 319 )( + T5 296 ) ) )
(or ( <= ( + T5 409 )  ( + T6 319 ) ) ( <= ( + T6 416 )( + T5 385 ) ) )
(or ( <= ( + T5 475 )  ( + T6 416 ) ) ( <= ( + T6 481 )( + T5 409 ) ) )
( <= ( + T1 237 ) Z)
( <= ( + T2 439 ) Z)
( <= ( + T3 374 ) Z)
( <= ( + T4 423 ) Z)
( <= ( + T5 475 ) Z)
( <= ( + T6 481 ) Z)
( >= T1 0 )
( >= T2 0 )
( >= T3 0 )
( >= T4 0 )
( >= T5 0 )
( >= T6 0 )
) )
(minimize Z)
(check-sat)